3 5
110 127 134 
0 32 75 8 94 93 12 50 50 3 43 33 70 3
1 48 8 57 50 73 85 55 93 40 71 16 56 1
2 66 46 74 16 75 87 12 32 36 35 74 48 1
3 78 47 62 1 39 48 44 47 80 99 89 72 3
4 27 44 96 94 64 37 18 32 65 8 71 28 2
